7736 5137
4597 4302
4078 6208
7383 6447
8458 5521
6058 3384
1347 4499
2962 7770
3459 5711
4724 8982
1077 5215
6311 1617
9050 4911
1385 7085
8571 6484
3986 3458
4202 4098
1819 3347
4182 8745
7781 2514
1169 6640
7863 7517
1652 1613
6434 2697
8332 9786
6720 5882
7225 8520
599 696
2269 361
1923 6036
2937 1018
8201 3789
2684 972
7987 525
9414 6040
5775 7057
7376 3968
8494 8087
8925 8496
2382 6955
1531 5648
3765 4504
3377 5893
5737 431
8353 6897
8900 7841
3278 1277
9697 9055
9735 1668
8644 8644
